2722.67
0 38 40 4 1 0
0 60 57 59 42 15 68 0
0 43 23 74 67 73 8 5 0
0 48 53 16 37 7 75 6 70 0
0 25 33 27 28 20 29 31 32 21 66 63 61 56 62 54 35 11 0
0 34 19 18 41 45 51 72 9 0
0 22 26 36 50 12 10 3 0
0 17 24 30 44 39 13 65 14 0
0 55 58 64 52 49 47 46 2 71 69 0
